K point mesh generated by DPmoire 
 0 
 Gamma
7 7 1
