Mo S 
 1.0000000000000000
     3.1613090988944190   -5.4755475820109174    0.0000000252504300
     3.1613090901348442    5.4755475724689964    0.0000000421231162
     0.0000000000000000    0.0000000000000000   30.0000000000000000
 Mo  S  
   8  16
Selective dynamics
Cartesian
  2.4587960983057693  1.8251825158882347 18.5000000400802058   F   F   T
  1.5806546838927802  0.9125912543401755 11.5000000293167108   F   F   T
  0.8781415532383475 -0.9125912703462631 18.5000000190186498   T   T   T
  3.1613092289602029  3.6503650405746737 11.5000000503782687   T   T   T
  4.0394506477529788 -0.9125912751172239 18.5000000527054205   T   T   T
  3.1613092333399893 -1.8251825366652830 11.5000000419419255   T   T   T
  2.4587961026855556 -3.6503650613517218 18.5000000316438644   T   T   T
  4.7419637784074107  0.9125912495692151 11.5000000630034833   T   T   T
  2.4587961447253455  0.0000000265602207 16.9346793157399880   T   T   T
  2.4587960417937547  0.0000000296856619 20.0653207255943933   T   T   T
  1.5806547303123566 -0.9125912349878385  9.9346793049764948   T   T   T
  1.5806546273807658 -0.9125912318623974 13.0653207148308983   T   T   T
  4.0394506897927673  2.7377738127947193 16.9346793368015476   T   T   T
  4.0394505868611770  2.7377738159201601 20.0653207466559529   T   T   T
  3.1613092753797791  1.8251825512466597  9.9346793260380526   T   T   T
  3.1613091724481888  1.8251825543721008 13.0653207358924544   T   T   T
  4.0394506941725545 -2.7377737644452376 16.9346793283652026   T   T   T
  4.0394505912409642 -2.7377737613197968 20.0653207382196044   T   T   T
  3.1613092797595659 -3.6503650259932976  9.9346793176017094   T   T   T
  3.1613091768279755 -3.6503650228678559 13.0653207274561112   T   T   T
  5.6201052392399777  0.0000000217892601 16.9346793494267622   T   T   T
  5.6201051363083865  0.0000000249147016 20.0653207592811675   T   T   T
  4.7419638248269882 -0.9125912397587992  9.9346793386632672   T   T   T
  4.7419637218953978 -0.9125912366333579 13.0653207485176690   T   T   T
