Mo S 
 1.0000000000000000
     3.1613090988944190   -5.4755475820109174    0.0000000252504300
     3.1613090901348442    5.4755475724689964    0.0000000421231162
     0.0000000000000000    0.0000000000000000   30.0000000000000000
 Mo  S  
   8  16
Selective dynamics
Cartesian
  2.8100526643629502  1.8251825153581283 18.5000000438231815   F   F   T
  1.5806546838927802  0.9125912543401755 11.5000000293167108   F   F   T
  1.2293981192955290 -0.9125912708763698 18.5000000227616255   T   T   T
  3.1613092289602029  3.6503650405746737 11.5000000503782687   T   T   T
  4.3907072138101597 -0.9125912756473303 18.5000000564483962   T   T   T
  3.1613092333399893 -1.8251825366652830 11.5000000419419255   T   T   T
  2.8100526687427387 -3.6503650618818284 18.5000000353868401   T   T   T
  4.7419637784074107  0.9125912495692151 11.5000000630034833   T   T   T
  2.8100527107825264  0.0000000260301145 16.9346793194829637   T   T   T
  2.8100526078509351  0.0000000291555554 20.0653207293373690   T   T   T
  1.5806547303123566 -0.9125912349878385  9.9346793049764948   T   T   T
  1.5806546273807658 -0.9125912318623974 13.0653207148308983   T   T   T
  4.3907072558499491  2.7377738122646127 16.9346793405445233   T   T   T
  4.3907071529183588  2.7377738153900535 20.0653207503989286   T   T   T
  3.1613092753797791  1.8251825512466597  9.9346793260380526   T   T   T
  3.1613091724481888  1.8251825543721008 13.0653207358924544   T   T   T
  4.3907072602297363 -2.7377737649753437 16.9346793321081783   T   T   T
  4.3907071572981451 -2.7377737618499038 20.0653207419625836   T   T   T
  3.1613092797595659 -3.6503650259932976  9.9346793176017094   T   T   T
  3.1613091768279755 -3.6503650228678559 13.0653207274561112   T   T   T
  5.9713618052971587  0.0000000212591538 16.9346793531697379   T   T   T
  5.9713617023655674  0.0000000243845948 20.0653207630241432   T   T   T
  4.7419638248269882 -0.9125912397587992  9.9346793386632672   T   T   T
  4.7419637218953978 -0.9125912366333579 13.0653207485176690   T   T   T
