Mo S 
 1.0000000000000000
     3.1613090988944190   -5.4755475820109174    0.0000000252504300
     3.1613090901348442    5.4755475724689964    0.0000000421231162
     0.0000000000000000    0.0000000000000000   30.0000000000000000
 Mo  S  
   8  16
Selective dynamics
Cartesian
  3.1613092318800602 -0.0000000109186314 18.5000000447540422   F   F   T
  1.5806546838927802  0.9125912543401755 11.5000000293167108   F   F   T
  1.5806546868126388 -2.7377737971531286 18.5000000236924862   T   T   T
  3.1613092289602029  3.6503650405746737 11.5000000503782687   T   T   T
  1.5806546824328507  2.7377737800868278 18.5000000321288276   T   T   T
  3.1613092333399893 -1.8251825366652830 11.5000000419419255   T   T   T
  0.0000001373654299 -0.0000000061476707 18.5000000110672680   T   T   T
  4.7419637784074107  0.9125912495692151 11.5000000630034833   T   T   T
  3.1613092782996368 -1.8251825002466446 16.9346793204138244   T   T   T
  3.1613091753680465 -1.8251824971212043 20.0653207302682297   T   T   T
  1.5806547303123566 -0.9125912349878385  9.9346793049764948   T   T   T
  1.5806546273807658 -0.9125912318623974 13.0653207148308983   T   T   T
  4.7419638233670591  0.9125912859878533 16.9346793414753840   T   T   T
  4.7419637204354688  0.9125912891132938 20.0653207513297858   T   T   T
  3.1613092753797791  1.8251825512466597  9.9346793260380526   T   T   T
  3.1613091724481888  1.8251825543721008 13.0653207358924544   T   T   T
  1.5806547288524277  0.9125912907588132 16.9346793077886062   T   T   T
  1.5806546259208361  0.9125912938842542 20.0653207176430151   T   T   T
  3.1613092797595659 -3.6503650259932976  9.9346793176017094   T   T   T
  3.1613091768279755 -3.6503650228678559 13.0653207274561112   T   T   T
  3.1613092739198501  3.6503650769933116 16.9346793288501694   T   T   T
  3.1613091709882597  3.6503650801187524 20.0653207387045711   T   T   T
  4.7419638248269882 -0.9125912397587992  9.9346793386632672   T   T   T
  4.7419637218953978 -0.9125912366333579 13.0653207485176690   T   T   T
