Mo S 
 1.0000000000000000
     3.1613090988944190   -5.4755475820109174    0.0000000252504300
     3.1613090901348442    5.4755475724689964    0.0000000421231162
     0.0000000000000000    0.0000000000000000   30.0000000000000000
 Mo  S  
   4   8
Cartesian
  1.5806546838927802  0.9125912543401755  9.2522773535035920
  3.1613092289602029  3.6503650405746737  9.2522773745651499
  3.1613092333399893 -1.8251825366652830  9.2522773661288049
  4.7419637784074107  0.9125912495692151  9.2522773871903645
  1.5806547303123566 -0.9125912349878382  7.6869566291633769
  1.5806546273807656 -0.9125912318623972 10.8175980390177831
  3.1613092753797787  1.8251825512466602  7.6869566502249356
  3.1613091724481883  1.8251825543721012 10.8175980600793391
  3.1613092797595659 -3.6503650259932967  7.6869566417885924
  3.1613091768279755 -3.6503650228678559 10.8175980516429959
  4.7419638248269882 -0.9125912397587986  7.6869566628501502
  4.7419637218953978 -0.9125912366333579 10.8175980727045538
