Mo S 
 1.0000000000000000
     3.1613090988944190   -5.4755475820109174    0.0000000252504300
     3.1613090901348442    5.4755475724689964    0.0000000421231162
     0.0000000000000000    0.0000000000000000   30.0000000000000000
 Mo  S  
   8  16
Selective dynamics
Cartesian
  2.4587960997656979 -0.0000000098584174 18.5000000372680908   F   F   T
  1.5806546838927802  0.9125912543401755 11.5000000293167108   F   F   T
  4.0394506448331207  2.7377737763760805 18.5000000583296504   T   T   T
  3.1613092289602029  3.6503650405746737 11.5000000503782687   T   T   T
  4.0394506492129079 -2.7377738008638759 18.5000000498933055   T   T   T
  3.1613092333399893 -1.8251825366652830 11.5000000419419255   T   T   T
  5.6201051942803302 -0.0000000146293779 18.5000000709548651   T   T   T
  4.7419637784074107  0.9125912495692151 11.5000000630034833   T   T   T
  2.4587961461852741 -1.8251824991864312 16.9346793129278730   T   T   T
  2.4587960432536833 -1.8251824960609906 20.0653207227822747   T   T   T
  1.5806547303123566 -0.9125912349878385  9.9346793049764948   T   T   T
  1.5806546273807658 -0.9125912318623974 13.0653207148308983   T   T   T
  4.0394506912526964  0.9125912870480671 16.9346793339894326   T   T   T
  4.0394505883211060  0.9125912901735078 20.0653207438438379   T   T   T
  3.1613092753797791  1.8251825512466597  9.9346793260380526   T   T   T
  3.1613091724481888  1.8251825543721008 13.0653207358924544   T   T   T
  0.8781415967380648  0.9125912918190265 16.9346793003026583   T   T   T
  0.8781414938064740  0.9125912949444688 20.0653207101570601   T   T   T
  3.1613092797595659 -3.6503650259932976  9.9346793176017094   T   T   T
  3.1613091768279755 -3.6503650228678559 13.0653207274561112   T   T   T
  2.4587961418054869  3.6503650780535248 16.9346793213642144   T   T   T
  2.4587960388738965  3.6503650811789656 20.0653207312186233   T   T   T
  4.7419638248269882 -0.9125912397587992  9.9346793386632672   T   T   T
  4.7419637218953978 -0.9125912366333579 13.0653207485176690   T   T   T
