POSCAR file written by OVITO Basic 3.7.9 d = 3.6
    1.000000000000000     
     4.9199999999999999    0.0000000000000000    0.0000000000000000
    -2.4600000000000000    4.2608449866000004    0.0000000000000000
     0.0000000000000000    0.0000000000000000   20.0000000000000000
   C 
    16
Direct
  0.0000004655734331 -0.0000327017865460  0.5903139576422616
  0.1666549768181806  0.3333959533186417  0.5903129153648553
  0.0000193316135131  0.9999632879509649  0.4096860314889239
  0.1666826952298512  0.3334109748202999  0.4096843020634249
  0.5000198059773404 -0.0000172184790736  0.5903136220854894
  0.6666456193481163  0.3333844142530083  0.5903123588231396
  0.5000387494940361  0.9999648391943025  0.4096906576961465
  0.6666709214621623  0.3333694145373233  0.4096873018430351
  0.0000073353402876  0.4999606664042984  0.5903098483175643
  0.1666523610081664  0.8333734382434249  0.5903118189702115
 -0.0000110320989657  0.4998986800161022  0.4096850411419077
  0.1666879560471854  0.8333580948598230  0.4096872814779037
  0.5000137227732936  0.4999566677441680  0.5903151746276526
  0.6666531809916368  0.8333815683269471  0.5903150851344193
  0.4999983629389294  0.4999098653273629  0.4096861375309999
  0.6666255474983999  0.8333620553001890  0.4096884657920650
