Generated by 2DTwist with fix strain 0.000 rot strain 0.000
1.0
-1.23  10.652112466548594 0.0 
-8.61  -6.391267479929158 0.0 
0.0    0.0    25 
C
76 
Cartesian
-7.380000000    -4.260844987     1.000000000 C1
-8.610000000    -2.130422493     1.000000000 C1
-6.150000000    -2.130422493     1.000000000 C1
-7.380000000     0.000000000     1.000000000 C1
-8.610000000     2.130422493     1.000000000 C1
-3.690000000    -2.130422493     1.000000000 C1
-4.920000000     0.000000000     1.000000000 C1
-6.150000000     2.130422493     1.000000000 C1
-7.380000000     4.260844987     1.000000000 C1
-2.460000000     0.000000000     1.000000000 C1
-3.690000000     2.130422493     1.000000000 C1
-4.920000000     4.260844987     1.000000000 C1
-6.150000000     6.391267480     1.000000000 C1
-1.230000000     2.130422493     1.000000000 C1
-2.460000000     4.260844987     1.000000000 C1
-3.690000000     6.391267480     1.000000000 C1
-1.230000000     6.391267480     1.000000000 C1
-2.460000000     8.521689973     1.000000000 C1
 0.000000000     0.000000000     1.000000000 C1
-7.380000000    -1.420281662     1.000000000 C1
-8.610000000     0.710140831     1.000000000 C1
-6.150000000     0.710140831     1.000000000 C1
-7.380000000     2.840563324     1.000000000 C1
-8.610000000     4.970985818     1.000000000 C1
-3.690000000     0.710140831     1.000000000 C1
-4.920000000     2.840563324     1.000000000 C1
-6.150000000     4.970985818     1.000000000 C1
-7.380000000     7.101408311     1.000000000 C1
-2.460000000     2.840563324     1.000000000 C1
-3.690000000     4.970985818     1.000000000 C1
-4.920000000     7.101408311     1.000000000 C1
-6.150000000     9.231830804     1.000000000 C1
-1.230000000     4.970985818     1.000000000 C1
-2.460000000     7.101408311     1.000000000 C1
-3.690000000     9.231830804     1.000000000 C1
-1.230000000     9.231830804     1.000000000 C1
-2.460000000     11.362253298     1.000000000 C1
 0.000000000     2.840563324     1.000000000 C1
-7.897894737    -4.036589987     4.360000000 C2
-5.502631579    -3.475952489     4.360000000 C2
-7.185789474    -1.681912495     4.360000000 C2
-8.868947368     0.112127500     4.360000000 C2
-4.790526316    -1.121274996     4.360000000 C2
-6.473684211     0.672764998     4.360000000 C2
-8.156842105     2.466804992     4.360000000 C2
-2.395263158    -0.560637498     4.360000000 C2
-4.078421053     1.233402496     4.360000000 C2
-5.761578947     3.027442490     4.360000000 C2
-7.444736842     4.821482485     4.360000000 C2
-1.683157895     1.794039994     4.360000000 C2
-3.366315789     3.588079989     4.360000000 C2
-5.049473684     5.382119983     4.360000000 C2
-0.971052632     4.148717487     4.360000000 C2
-2.654210526     5.942757481     4.360000000 C2
-4.337368421     7.736797476     4.360000000 C2
-1.942105263     8.297434974     4.360000000 C2
 0.000000000     0.000000000     4.360000000 C2
-8.545263158    -1.270778329     4.360000000 C2
-6.150000000    -0.710140831     4.360000000 C2
-7.833157895     1.083899163     4.360000000 C2
-9.516315789     2.877939158     4.360000000 C2
-5.437894737     1.644536662     4.360000000 C2
-7.121052632     3.438576656     4.360000000 C2
-8.804210526     5.232616650     4.360000000 C2
-3.042631579     2.205174160     4.360000000 C2
-4.725789474     3.999214154     4.360000000 C2
-6.408947368     5.793254148     4.360000000 C2
-8.092105263     7.587294143     4.360000000 C2
-2.330526316     4.559851652     4.360000000 C2
-4.013684211     6.353891647     4.360000000 C2
-5.696842105     8.147931641     4.360000000 C2
-1.618421053     6.914529145     4.360000000 C2
-3.301578947     8.708569139     4.360000000 C2
-4.984736842     10.502609134     4.360000000 C2
-2.589473684     11.063246632     4.360000000 C2
-0.647368421     2.765811658     4.360000000 C2
