Mo S 
 1.0000000000000000
     3.1613090988944190   -5.4755475820109174    0.0000000252504300
     3.1613090901348442    5.4755475724689964    0.0000000421231162
     0.0000000000000000    0.0000000000000000   30.0000000000000000
 Mo  S  
   8  16
Selective dynamics
Cartesian
  2.6344243825509670  0.3041970775009711 18.5000000396082669   F   F   T
  1.5806546838927802  0.9125912543401755 11.5000000293167108   F   F   T
  4.2150789276183893  3.0419708637354694 18.5000000606698265   T   T   T
  3.1613092289602029  3.6503650405746737 11.5000000503782687   T   T   T
  4.2150789319981765 -2.4335767135044875 18.5000000522334815   T   T   T
  3.1613092333399893 -1.8251825366652830 11.5000000419419255   T   T   T
  5.7957334770655988  0.3041970727300109 18.5000000732950411   T   T   T
  4.7419637784074107  0.9125912495692151 11.5000000630034833   T   T   T
  2.6344244289705436 -1.5209854118270427 16.9346793152680490   T   T   T
  2.6344243260389524 -1.5209854087016021 20.0653207251224543   T   T   T
  1.5806547303123566 -0.9125912349878385  9.9346793049764948   T   T   T
  1.5806546273807658 -0.9125912318623974 13.0653207148308983   T   T   T
  4.2150789740379659  1.2167883744074557 16.9346793363296086   T   T   T
  4.2150788711063747  1.2167883775328967 20.0653207461840140   T   T   T
  3.1613092753797791  1.8251825512466597  9.9346793260380526   T   T   T
  3.1613091724481888  1.8251825543721008 13.0653207358924544   T   T   T
  1.0537698795233341  1.2167883791784158 16.9346793026428344   T   T   T
  1.0537697765917429  1.2167883823038570 20.0653207124972361   T   T   T
  3.1613092797595659 -3.6503650259932976  9.9346793176017094   T   T   T
  3.1613091768279755 -3.6503650228678559 13.0653207274561112   T   T   T
  2.6344244245907564  3.9545621654129146 16.9346793237043940   T   T   T
  2.6344243216591647  3.9545621685383554 20.0653207335587993   T   T   T
  4.7419638248269882 -0.9125912397587992  9.9346793386632672   T   T   T
  4.7419637218953978 -0.9125912366333579 13.0653207485176690   T   T   T
