Mo S 
 1.0000000000000000
     3.1613090988944190   -5.4755475820109174    0.0000000252504300
     3.1613090901348442    5.4755475724689964    0.0000000421231162
     0.0000000000000000    0.0000000000000000   30.0000000000000000
 Mo  S  
   8  16
Selective dynamics
Cartesian
  3.1613092304201316  1.8251825148280214 18.5000000475661572   F   F   T
  1.5806546838927802  0.9125912543401755 11.5000000293167108   F   F   T
  1.5806546853527104 -0.9125912714064766 18.5000000265046012   T   T   T
  3.1613092289602029  3.6503650405746737 11.5000000503782687   T   T   T
  4.7419637798673406 -0.9125912761774372 18.5000000601913719   T   T   T
  3.1613092333399893 -1.8251825366652830 11.5000000419419255   T   T   T
  3.1613092347999197 -3.6503650624119346 18.5000000391298123   T   T   T
  4.7419637784074107  0.9125912495692151 11.5000000630034833   T   T   T
  3.1613092768397077  0.0000000255000075 16.9346793232259394   T   T   T
  3.1613091739081165  0.0000000286254485 20.0653207330803447   T   T   T
  1.5806547303123566 -0.9125912349878385  9.9346793049764948   T   T   T
  1.5806546273807658 -0.9125912318623974 13.0653207148308983   T   T   T
  1.5806547317722859 -2.7377737607344903 16.9346793021643833   T   T   T
  1.5806546288406942 -2.7377737576090495 20.0653207120187851   T   T   T
  3.1613092753797791  1.8251825512466597  9.9346793260380526   T   T   T
  3.1613091724481888  1.8251825543721008 13.0653207358924544   T   T   T
  1.5806547273924985  2.7377738165054661 16.9346793106007247   T   T   T
  1.5806546244609070  2.7377738196309074 20.0653207204551300   T   T   T
  3.1613092797595659 -3.6503650259932976  9.9346793176017094   T   T   T
  3.1613091768279755 -3.6503650228678559 13.0653207274561112   T   T   T
  0.0000001823250765  0.0000000302709681 16.9346792895391687   T   T   T
  0.0000000793934848  0.0000000333964088 20.0653206993935704   T   T   T
  4.7419638248269882 -0.9125912397587992  9.9346793386632672   T   T   T
  4.7419637218953978 -0.9125912366333579 13.0653207485176690   T   T   T
