SYSTEM = C
ISYM   = 0        ! no symmetry imposed
NCORE = 4

! ab initio
GGA      = BO
PARAM1   = 0.1833333333
PARAM2   = 0.22
AGGAC    = 0.0
LUSE_VDW = .TRUE.
LASPH    = .TRUE.

PREC = A
NELM = 128
NELMIN = 4
ISMEAR = 0      
SIGMA  = 0.03  ! smearing in eV
EDIFF  = 1e-6
ENCUT = 480
LWAVE  = F
LCHARG = F

IBRION = 2        !  GC minimizer
NSW    = 100
EDIFFG = -0.001