Mo S 
 1.0000000000000000
     3.1613090988944190   -5.4755475820109174    0.0000000252504300
     3.1613090901348442    5.4755475724689964    0.0000000421231162
     0.0000000000000000    0.0000000000000000   30.0000000000000000
 Mo  S  
   8  16
Selective dynamics
Cartesian
  2.1075395322485875  1.8251825164183415 18.5000000363372337   F   F   T
  1.5806546838927802  0.9125912543401755 11.5000000293167108   F   F   T
  0.5268849871811662 -0.9125912698161566 18.5000000152756776   T   T   T
  3.1613092289602029  3.6503650405746737 11.5000000503782687   T   T   T
  3.6881940816957965 -0.9125912745871170 18.5000000489624483   T   T   T
  3.1613092333399893 -1.8251825366652830 11.5000000419419255   T   T   T
  2.1075395366283756 -3.6503650608216152 18.5000000279008923   T   T   T
  4.7419637784074107  0.9125912495692151 11.5000000630034833   T   T   T
  2.1075395786681641  0.0000000270903277 16.9346793119970158   T   T   T
  2.1075394757365724  0.0000000302157684 20.0653207218514176   T   T   T
  1.5806547303123566 -0.9125912349878385  9.9346793049764948   T   T   T
  1.5806546273807658 -0.9125912318623974 13.0653207148308983   T   T   T
  3.6881941237355869  2.7377738133248259 16.9346793330585754   T   T   T
  3.6881940208039952  2.7377738164502667 20.0653207429129807   T   T   T
  3.1613092753797791  1.8251825512466597  9.9346793260380526   T   T   T
  3.1613091724481888  1.8251825543721008 13.0653207358924544   T   T   T
  3.6881941281153736 -2.7377737639151314 16.9346793246222305   T   T   T
  3.6881940251837824 -2.7377737607896901 20.0653207344766358   T   T   T
  3.1613092797595659 -3.6503650259932976  9.9346793176017094   T   T   T
  3.1613091768279755 -3.6503650228678559 13.0653207274561112   T   T   T
  5.2688486731827968  0.0000000223193669 16.9346793456837901   T   T   T
  5.2688485702512047  0.0000000254448082 20.0653207555381954   T   T   T
  4.7419638248269882 -0.9125912397587992  9.9346793386632672   T   T   T
  4.7419637218953978 -0.9125912366333579 13.0653207485176690   T   T   T
