Mo S 
 1.0000000000000000
     3.1613090988944190   -5.4755475820109174    0.0000000252504300
     3.1613090901348442    5.4755475724689964    0.0000000421231162
     0.0000000000000000    0.0000000000000000   30.0000000000000000
 Mo  S  
   8  16
Selective dynamics
Cartesian
  2.2831678164937861  0.3041970780310779 18.5000000358652912   F   F   T
  1.5806546838927802  0.9125912543401755 11.5000000293167108   F   F   T
  3.8638223615612080  3.0419708642655761 18.5000000569268508   T   T   T
  3.1613092289602029  3.6503650405746737 11.5000000503782687   T   T   T
  3.8638223659409947 -2.4335767129743808 18.5000000484905058   T   T   T
  3.1613092333399893 -1.8251825366652830 11.5000000419419255   T   T   T
  5.4444769110084179  0.3041970732601172 18.5000000695520654   T   T   T
  4.7419637784074107  0.9125912495692151 11.5000000630034833   T   T   T
  2.2831678629133623 -1.5209854112969361 16.9346793115250733   T   T   T
  2.2831677599817710 -1.5209854081714946 20.0653207213794786   T   T   T
  1.5806547303123566 -0.9125912349878385  9.9346793049764948   T   T   T
  1.5806546273807658 -0.9125912318623974 13.0653207148308983   T   T   T
  3.8638224079807841  1.2167883749375621 16.9346793325866329   T   T   T
  3.8638223050491933  1.2167883780630038 20.0653207424410347   T   T   T
  3.1613092753797791  1.8251825512466597  9.9346793260380526   T   T   T
  3.1613091724481888  1.8251825543721008 13.0653207358924544   T   T   T
  0.7025133134661526  1.2167883797085222 16.9346792988998587   T   T   T
  0.7025132105345615  1.2167883828339641 20.0653207087542640   T   T   T
  3.1613092797595659 -3.6503650259932976  9.9346793176017094   T   T   T
  3.1613091768279755 -3.6503650228678559 13.0653207274561112   T   T   T
  2.2831678585335760  3.9545621659430199 16.9346793199614183   T   T   T
  2.2831677556019838  3.9545621690684625 20.0653207298158200   T   T   T
  4.7419638248269882 -0.9125912397587992  9.9346793386632672   T   T   T
  4.7419637218953978 -0.9125912366333579 13.0653207485176690   T   T   T
