Mo S 
 1.0000000000000000
     3.1613090988944190   -5.4755475820109174    0.0000000252504300
     3.1613090901348442    5.4755475724689964    0.0000000421231162
     0.0000000000000000    0.0000000000000000   30.0000000000000000
 Mo  S  
   8  16
Selective dynamics
Cartesian
  2.6344243810910379  2.1293796032476235 18.5000000424203783   F   F   T
  1.5806546838927802  0.9125912543401755 11.5000000293167108   F   F   T
  1.0537698360236170 -0.6083941829868748 18.5000000213588223   T   T   T
  3.1613092289602029  3.6503650405746737 11.5000000503782687   T   T   T
  4.2150789305382474 -0.6083941877578353 18.5000000550455930   T   T   T
  3.1613092333399893 -1.8251825366652830 11.5000000419419255   T   T   T
  2.6344243854708265 -3.3461679739923329 18.5000000339840369   T   T   T
  4.7419637784074107  0.9125912495692151 11.5000000630034833   T   T   T
  2.6344244275106146  0.3041971139196096 16.9346793180801605   T   T   T
  2.6344243245790233  0.3041971170450505 20.0653207279345622   T   T   T
  1.5806547303123566 -0.9125912349878385  9.9346793049764948   T   T   T
  1.5806546273807658 -0.9125912318623974 13.0653207148308983   T   T   T
  4.2150789725780369  3.0419709001541078 16.9346793391417201   T   T   T
  4.2150788696464465  3.0419709032795490 20.0653207489961254   T   T   T
  3.1613092753797791  1.8251825512466597  9.9346793260380526   T   T   T
  3.1613091724481888  1.8251825543721008 13.0653207358924544   T   T   T
  4.2150789769578241 -2.4335766770858487 16.9346793307053751   T   T   T
  4.2150788740262328 -2.4335766739604079 20.0653207405597804   T   T   T
  3.1613092797595659 -3.6503650259932976  9.9346793176017094   T   T   T
  3.1613091768279755 -3.6503650228678559 13.0653207274561112   T   T   T
  5.7957335220252464  0.3041971091486489 16.9346793517669347   T   T   T
  5.7957334190936551  0.3041971122740899 20.0653207616213400   T   T   T
  4.7419638248269882 -0.9125912397587992  9.9346793386632672   T   T   T
  4.7419637218953978 -0.9125912366333579 13.0653207485176690   T   T   T
