SYSTEM = C
ISYM   = 0        
NCORE = 4

! ab initio
IVDW=11

PREC = A
NELM = 128
NELMIN = 4
ISMEAR = 0      
SIGMA  = 0.03  
EDIFF  = 1e-6
ENCUT = 310.4268    !This line will be changed by DPmoire to 1.6*ENMAX
LWAVE  = F
LCHARG = F
LREAL = A
! MD
IBRION = 0        
NSW    = 500    
POTIM  = 1      
MDALGO = 3                
LANGEVIN_GAMMA = 1 1 
LANGEVIN_GAMMA_L = 1
TEBEG  = 30             
TEEND = 330
ISIF   = 3
! machine learning
ML_LMLFF  = T
ML_ISTART = 0
ML_RCUT1 = 6     !This line will be changed by DPmoire to appropriate value
ML_RCUT2 = 6     !This line will be changed by DPmoire to appropriate value
ML_CTIFOR = 0.002