SYSTEM = C
ISYM   = 0 
NCORE = 4
! ab initio

IVDW = 11

PREC = A
NELM = 128
NELMIN = 4
ISMEAR = 0      
SIGMA  = 0.03 
EDIFF  = 1e-6
ENCUT = 312   ! This line will be changed by DPmoire to 1.6*ENMAX.
LWAVE  = F
LCHARG = F
LREAL = A

! MD
IBRION = 2 
NSW    = 100
EDIFFG = -0.005
ISIF   = 2   ! This line should not be changed