Mo S 
 1.0000000000000000
     3.1613090988944190   -5.4755475820109174    0.0000000252504300
     3.1613090901348442    5.4755475724689964    0.0000000421231162
     0.0000000000000000    0.0000000000000000   30.0000000000000000
 Mo  S  
   8  16
Selective dynamics
Cartesian
  2.6344243815776816  1.5209854279987394 18.5000000414830090   F   F   T
  1.5806546838927802  0.9125912543401755 11.5000000293167108   F   F   T
  1.0537698365102597 -1.2167883582357584 18.5000000204214494   T   T   T
  3.1613092289602029  3.6503650405746737 11.5000000503782687   T   T   T
  4.2150789310248911 -1.2167883630067196 18.5000000541082237   T   T   T
  3.1613092333399893 -1.8251825366652830 11.5000000419419255   T   T   T
  2.6344243859574692 -3.9545621492412173 18.5000000330466676   T   T   T
  4.7419637784074107  0.9125912495692151 11.5000000630034833   T   T   T
  2.6344244279972573 -0.3041970613292743 16.9346793171427912   T   T   T
  2.6344243250656669 -0.3041970582038336 20.0653207269971965   T   T   T
  1.5806547303123566 -0.9125912349878385  9.9346793049764948   T   T   T
  1.5806546273807658 -0.9125912318623974 13.0653207148308983   T   T   T
  4.2150789730646796  2.4335767249052238 16.9346793382043508   T   T   T
  4.2150788701330892  2.4335767280306646 20.0653207480587525   T   T   T
  3.1613092753797791  1.8251825512466597  9.9346793260380526   T   T   T
  3.1613091724481888  1.8251825543721008 13.0653207358924544   T   T   T
  4.2150789774444677 -3.0419708523347335 16.9346793297680058   T   T   T
  4.2150788745128764 -3.0419708492092918 20.0653207396224111   T   T   T
  3.1613092797595659 -3.6503650259932976  9.9346793176017094   T   T   T
  3.1613091768279755 -3.6503650228678559 13.0653207274561112   T   T   T
  5.7957335225118900 -0.3041970661002349 16.9346793508295654   T   T   T
  5.7957334195802988 -0.3041970629747943 20.0653207606839672   T   T   T
  4.7419638248269882 -0.9125912397587992  9.9346793386632672   T   T   T
  4.7419637218953978 -0.9125912366333579 13.0653207485176690   T   T   T
