Mo S 
 1.0000000000000000
     3.1613090988944190   -5.4755475820109174    0.0000000252504300
     3.1613090901348442    5.4755475724689964    0.0000000421231162
     0.0000000000000000    0.0000000000000000   30.0000000000000000
 Mo  S  
   8  16
Selective dynamics
Cartesian
  2.2831678150338566  2.1293796037777302 18.5000000386774062   F   F   T
  1.5806546838927802  0.9125912543401755 11.5000000293167108   F   F   T
  0.7025132699664351 -0.6083941824567672 18.5000000176158501   T   T   T
  3.1613092289602029  3.6503650405746737 11.5000000503782687   T   T   T
  3.8638223644810661 -0.6083941872277282 18.5000000513026208   T   T   T
  3.1613092333399893 -1.8251825366652830 11.5000000419419255   T   T   T
  2.2831678194136433 -3.3461679734622263 18.5000000302410612   T   T   T
  4.7419637784074107  0.9125912495692151 11.5000000630034833   T   T   T
  2.2831678614534336  0.3041971144497164 16.9346793143371883   T   T   T
  2.2831677585218424  0.3041971175751574 20.0653207241915936   T   T   T
  1.5806547303123566 -0.9125912349878385  9.9346793049764948   T   T   T
  1.5806546273807658 -0.9125912318623974 13.0653207148308983   T   T   T
  3.8638224065208560  3.0419709006842139 16.9346793353987479   T   T   T
  3.8638223035892647  3.0419709038096561 20.0653207452531532   T   T   T
  3.1613092753797791  1.8251825512466597  9.9346793260380526   T   T   T
  3.1613091724481888  1.8251825543721008 13.0653207358924544   T   T   T
  3.8638224109006427 -2.4335766765557425 16.9346793269624030   T   T   T
  3.8638223079690519 -2.4335766734303013 20.0653207368168083   T   T   T
  3.1613092797595659 -3.6503650259932976  9.9346793176017094   T   T   T
  3.1613091768279755 -3.6503650228678559 13.0653207274561112   T   T   T
  5.4444769559680655  0.3041971096787557 16.9346793480239626   T   T   T
  5.4444768530364742  0.3041971128041967 20.0653207578783643   T   T   T
  4.7419638248269882 -0.9125912397587992  9.9346793386632672   T   T   T
  4.7419637218953978 -0.9125912366333579 13.0653207485176690   T   T   T
