Mo S 
 1.0000000000000000
     3.1613090988944190   -5.4755475820109174    0.0000000252504300
     3.1613090901348442    5.4755475724689964    0.0000000421231162
     0.0000000000000000    0.0000000000000000   30.0000000000000000
 Mo  S  
   8  16
Selective dynamics
Cartesian
  2.1075395327352306  1.2167883411694573 18.5000000353998608   F   F   T
  1.5806546838927802  0.9125912543401755 11.5000000293167108   F   F   T
  3.6881940778026530  3.9545621274039555 18.5000000564614204   T   T   T
  3.1613092289602029  3.6503650405746737 11.5000000503782687   T   T   T
  3.6881940821824397 -1.5209854498360016 18.5000000480250755   T   T   T
  3.1613092333399893 -1.8251825366652830 11.5000000419419255   T   T   T
  5.2688486272498620  1.2167883363984970 18.5000000690866351   T   T   T
  4.7419637784074107  0.9125912495692151 11.5000000630034833   T   T   T
  2.1075395791548073 -0.6083941481585566 16.9346793110596430   T   T   T
  2.1075394762232165 -0.6083941450331155 20.0653207209140483   T   T   T
  1.5806547303123566 -0.9125912349878385  9.9346793049764948   T   T   T
  1.5806546273807658 -0.9125912318623974 13.0653207148308983   T   T   T
  3.6881941242222296  2.1293796380759415 16.9346793321212026   T   T   T
  3.6881940212906388  2.1293796412013828 20.0653207419756043   T   T   T
  3.1613092753797791  1.8251825512466597  9.9346793260380526   T   T   T
  3.1613091724481888  1.8251825543721008 13.0653207358924544   T   T   T
  3.6881941286020159 -3.3461679391640153 16.9346793236848576   T   T   T
  3.6881940256704260 -3.3461679360385741 20.0653207335392629   T   T   T
  3.1613092797595659 -3.6503650259932976  9.9346793176017094   T   T   T
  3.1613091768279755 -3.6503650228678559 13.0653207274561112   T   T   T
  5.2688486736694395 -0.6083941529295169 16.9346793447464172   T   T   T
  5.2688485707378483 -0.6083941498040760 20.0653207546008225   T   T   T
  4.7419638248269882 -0.9125912397587992  9.9346793386632672   T   T   T
  4.7419637218953978 -0.9125912366333579 13.0653207485176690   T   T   T
