Mo S 
 1.0000000000000000
     3.1613090988944190   -5.4755475820109174    0.0000000252504300
     3.1613090901348442    5.4755475724689964    0.0000000421231162
     0.0000000000000000    0.0000000000000000   30.0000000000000000
 Mo  S  
   8  16
Selective dynamics
Cartesian
  2.8100526658228793 -0.0000000103885244 18.5000000410110665   F   F   T
  1.5806546838927802  0.9125912543401755 11.5000000293167108   F   F   T
  4.3907072108903016  2.7377737758459739 18.5000000620726262   T   T   T
  3.1613092289602029  3.6503650405746737 11.5000000503782687   T   T   T
  4.3907072152700888 -2.7377738013939825 18.5000000536362812   T   T   T
  3.1613092333399893 -1.8251825366652830 11.5000000419419255   T   T   T
  5.9713617603375111 -0.0000000151594850 18.5000000746978408   T   T   T
  4.7419637784074107  0.9125912495692151 11.5000000630034833   T   T   T
  2.8100527122424559 -1.8251824997165382 16.9346793166708487   T   T   T
  2.8100526093108646 -1.8251824965910977 20.0653207265252540   T   T   T
  1.5806547303123566 -0.9125912349878385  9.9346793049764948   T   T   T
  1.5806546273807658 -0.9125912318623974 13.0653207148308983   T   T   T
  4.3907072573098782  0.9125912865179602 16.9346793377324083   T   T   T
  4.3907071543782870  0.9125912896434011 20.0653207475868136   T   T   T
  3.1613092753797791  1.8251825512466597  9.9346793260380526   T   T   T
  3.1613091724481888  1.8251825543721008 13.0653207358924544   T   T   T
  1.2293981627952464  0.9125912912889199 16.9346793040456340   T   T   T
  1.2293980598636549  0.9125912944143612 20.0653207139000394   T   T   T
  3.1613092797595659 -3.6503650259932976  9.9346793176017094   T   T   T
  3.1613091768279755 -3.6503650228678559 13.0653207274561112   T   T   T
  2.8100527078626696  3.6503650775234178 16.9346793251071936   T   T   T
  2.8100526049310770  3.6503650806488595 20.0653207349615990   T   T   T
  4.7419638248269882 -0.9125912397587992  9.9346793386632672   T   T   T
  4.7419637218953978 -0.9125912366333579 13.0653207485176690   T   T   T
