SYSTEM = C
ISYM   = 0        ! no symmetry imposed
NCORE = 4
! ab initio

PREC = A
NELM = 128
NELMIN = 4
ISMEAR = 0      
SIGMA  = 0.03  ! smearing in eV
EDIFF  = 1e-6
ENCUT = 268
LWAVE  = F
LCHARG = F
LREAL = A
MAGMOM = 5000*0

! MD
IBRION = 2        !  GC minimizer
NSW    = 300
EDIFFG = -0.005
ISIF   = 0        ! NpT
IVDW=11
