Mo S 
 1.0000000000000000
     3.1613090988944190   -5.4755475820109174    0.0000000252504300
     3.1613090901348442    5.4755475724689964    0.0000000421231162
     0.0000000000000000    0.0000000000000000   30.0000000000000000
 Mo  S  
   8  16
Selective dynamics
Cartesian
  2.1075395332218743  0.6083941659205733 18.5000000344624880   F   F   T
  1.5806546838927802  0.9125912543401755 11.5000000293167108   F   F   T
  3.6881940782892966  3.3461679521550716 18.5000000555240476   T   T   T
  3.1613092289602029  3.6503650405746737 11.5000000503782687   T   T   T
  3.6881940826690833 -2.1293796250848849 18.5000000470877026   T   T   T
  3.1613092333399893 -1.8251825366652830 11.5000000419419255   T   T   T
  5.2688486277365056  0.6083941611496129 18.5000000681492622   T   T   T
  4.7419637784074107  0.9125912495692151 11.5000000630034833   T   T   T
  2.1075395796414500 -1.2167883234074406 16.9346793101222701   T   T   T
  2.1075394767098592 -1.2167883202819996 20.0653207199766754   T   T   T
  1.5806547303123566 -0.9125912349878385  9.9346793049764948   T   T   T
  1.5806546273807658 -0.9125912318623974 13.0653207148308983   T   T   T
  3.6881941247088719  1.5209854628270576 16.9346793311838297   T   T   T
  3.6881940217772815  1.5209854659524988 20.0653207410382350   T   T   T
  3.1613092753797791  1.8251825512466597  9.9346793260380526   T   T   T
  3.1613091724481888  1.8251825543721008 13.0653207358924544   T   T   T
  3.6881941290886595 -3.9545621144128988 16.9346793227474848   T   T   T
  3.6881940261570683 -3.9545621112874585 20.0653207326018865   T   T   T
  3.1613092797595659 -3.6503650259932976  9.9346793176017094   T   T   T
  3.1613091768279755 -3.6503650228678559 13.0653207274561112   T   T   T
  5.2688486741560823 -1.2167883281784009 16.9346793438090444   T   T   T
  5.2688485712244910 -1.2167883250529599 20.0653207536634497   T   T   T
  4.7419638248269882 -0.9125912397587992  9.9346793386632672   T   T   T
  4.7419637218953978 -0.9125912366333579 13.0653207485176690   T   T   T
