Mo S 
 1.0000000000000000
     3.1613090988944190   -5.4755475820109174    0.0000000252504300
     3.1613090901348442    5.4755475724689964    0.0000000421231162
     0.0000000000000000    0.0000000000000000   30.0000000000000000
 Mo  S  
   8  16
Selective dynamics
Cartesian
  1.9319112494633184  1.5209854290589528 18.5000000339970576   F   F   T
  1.5806546838927802  0.9125912543401755 11.5000000293167108   F   F   T
  3.5125657945307407  4.2587592152934510 18.5000000550586172   T   T   T
  3.1613092289602029  3.6503650405746737 11.5000000503782687   T   T   T
  3.5125657989105274 -1.2167883619465056 18.5000000466222723   T   T   T
  3.1613092333399893 -1.8251825366652830 11.5000000419419255   T   T   T
  5.0932203439779498  1.5209854242879930 18.5000000676838319   T   T   T
  4.7419637784074107  0.9125912495692151 11.5000000630034833   T   T   T
  1.9319112958828948 -0.3041970602690611 16.9346793096568398   T   T   T
  1.9319111929513040 -0.3041970571436201 20.0653207195112415   T   T   T
  1.5806547303123566 -0.9125912349878385  9.9346793049764948   T   T   T
  1.5806546273807658 -0.9125912318623974 13.0653207148308983   T   T   T
  3.5125658409503178  2.4335767259654371 16.9346793307183994   T   T   T
  3.5125657380187261  2.4335767290908779 20.0653207405728047   T   T   T
  3.1613092753797791  1.8251825512466597  9.9346793260380526   T   T   T
  3.1613091724481888  1.8251825543721008 13.0653207358924544   T   T   T
  3.5125658453301036 -3.0419708512745194 16.9346793222820544   T   T   T
  3.5125657423985137 -3.0419708481490795 20.0653207321364562   T   T   T
  3.1613092797595659 -3.6503650259932976  9.9346793176017094   T   T   T
  3.1613091768279755 -3.6503650228678559 13.0653207274561112   T   T   T
  5.0932203903975273 -0.3041970650400219 16.9346793433436140   T   T   T
  5.0932202874659360 -0.3041970619145810 20.0653207531980193   T   T   T
  4.7419638248269882 -0.9125912397587992  9.9346793386632672   T   T   T
  4.7419637218953978 -0.9125912366333579 13.0653207485176690   T   T   T
