Mo S 
 1.0000000000000000
     3.1613090988944190   -5.4755475820109174    0.0000000252504300
     3.1613090901348442    5.4755475724689964    0.0000000421231162
     0.0000000000000000    0.0000000000000000   30.0000000000000000
 Mo  S  
   8  16
Selective dynamics
Cartesian
  2.2831678155205002  1.5209854285288462 18.5000000377400333   F   F   T
  1.5806546838927802  0.9125912543401755 11.5000000293167108   F   F   T
  0.7025132704530782 -1.2167883577056517 18.5000000166784773   T   T   T
  3.1613092289602029  3.6503650405746737 11.5000000503782687   T   T   T
  3.8638223649677088 -1.2167883624766129 18.5000000503652480   T   T   T
  3.1613092333399893 -1.8251825366652830 11.5000000419419255   T   T   T
  2.2831678199002874 -3.9545621487111102 18.5000000293036919   T   T   T
  4.7419637784074107  0.9125912495692151 11.5000000630034833   T   T   T
  2.2831678619400759 -0.3041970607991676 16.9346793133998155   T   T   T
  2.2831677590084851 -0.3041970576737268 20.0653207232542208   T   T   T
  1.5806547303123566 -0.9125912349878385  9.9346793049764948   T   T   T
  1.5806546273807658 -0.9125912318623974 13.0653207148308983   T   T   T
  3.8638224070074982  2.4335767254353304 16.9346793344613751   T   T   T
  3.8638223040759070  2.4335767285607712 20.0653207443157804   T   T   T
  3.1613092753797791  1.8251825512466597  9.9346793260380526   T   T   T
  3.1613091724481888  1.8251825543721008 13.0653207358924544   T   T   T
  3.8638224113872850 -3.0419708518046265 16.9346793260250301   T   T   T
  3.8638223084556942 -3.0419708486791852 20.0653207358794354   T   T   T
  3.1613092797595659 -3.6503650259932976  9.9346793176017094   T   T   T
  3.1613091768279755 -3.6503650228678559 13.0653207274561112   T   T   T
  5.4444769564547073 -0.3041970655701278 16.9346793470865897   T   T   T
  5.4444768535231169 -0.3041970624446878 20.0653207569409950   T   T   T
  4.7419638248269882 -0.9125912397587992  9.9346793386632672   T   T   T
  4.7419637218953978 -0.9125912366333579 13.0653207485176690   T   T   T
