Mo S 
 1.0000000000000000
     3.1613090988944190   -5.4755475820109174    0.0000000252504300
     3.1613090901348442    5.4755475724689964    0.0000000421231162
     0.0000000000000000    0.0000000000000000   30.0000000000000000
 Mo  S  
   8  16
Selective dynamics
Cartesian
  2.6344243830376102 -0.3041970977479129 18.5000000386708940   F   F   T
  1.5806546838927802  0.9125912543401755 11.5000000293167108   F   F   T
  4.2150789281050320  2.4335766884865855 18.5000000597324536   T   T   T
  3.1613092289602029  3.6503650405746737 11.5000000503782687   T   T   T
  4.2150789324848201 -3.0419708887533718 18.5000000512961087   T   T   T
  3.1613092333399893 -1.8251825366652830 11.5000000419419255   T   T   T
  5.7957334775522424 -0.3041971025188738 18.5000000723576683   T   T   T
  4.7419637784074107  0.9125912495692151 11.5000000630034833   T   T   T
  2.6344244294571864 -2.1293795870759267 16.9346793143306762   T   T   T
  2.6344243265255955 -2.1293795839504859 20.0653207241850815   T   T   T
  1.5806547303123566 -0.9125912349878385  9.9346793049764948   T   T   T
  1.5806546273807658 -0.9125912318623974 13.0653207148308983   T   T   T
  4.2150789745246087  0.6083941991585716 16.9346793353922358   T   T   T
  4.2150788715930183  0.6083942022840124 20.0653207452466411   T   T   T
  3.1613092753797791  1.8251825512466597  9.9346793260380526   T   T   T
  3.1613091724481888  1.8251825543721008 13.0653207358924544   T   T   T
  1.0537698800099764  0.6083942039295325 16.9346793017054580   T   T   T
  1.0537697770783860  0.6083942070549730 20.0653207115598669   T   T   T
  3.1613092797595659 -3.6503650259932976  9.9346793176017094   T   T   T
  3.1613091768279755 -3.6503650228678559 13.0653207274561112   T   T   T
  2.6344244250773992  3.3461679901640293 16.9346793227670211   T   T   T
  2.6344243221458084  3.3461679932894715 20.0653207326214229   T   T   T
  4.7419638248269882 -0.9125912397587992  9.9346793386632672   T   T   T
  4.7419637218953978 -0.9125912366333579 13.0653207485176690   T   T   T
