SYSTEM = C
ISYM   = 0        ! no symmetry imposed
NCORE = 4
! ab initio
MAGMOM = 5000*0
PREC = A
NELM = 128
NELMIN = 4
ISMEAR = 0      
SIGMA  = 0.03  ! smearing in eV
EDIFF  = 1e-5
ENCUT = 413.90240000000006
LWAVE  = F
LCHARG = F
LREAL = A
MAGMOM = 5000*0
! MD
IBRION = 0        ! MD (treat ionic dgr of freedom)
NSW    = 10000    ! no of ionic steps
POTIM  = 1      ! MD time step in fs
MDALGO = 3                ! Langevin thermostat
LANGEVIN_GAMMA = 1 1 
TEBEG  = 100              ! temperature
TEEND = 330
ISIF   = 2        ! NVT
! machine learning
ML_LMLFF  = T
ML_ISTART = 1
ML_RCUT1 = 8.448821675466913
ML_RCUT2 = 8.448821675466913
IVDW=11
