Mo S 
 1.0000000000000000
     3.1613090988944190   -5.4755475820109174    0.0000000252504300
     3.1613090901348442    5.4755475724689964    0.0000000421231162
     0.0000000000000000    0.0000000000000000   30.0000000000000000
 Mo  S  
   8  16
Selective dynamics
Cartesian
  1.7562829666780495  1.2167883416995642 18.5000000316568851   F   F   T
  1.5806546838927802  0.9125912543401755 11.5000000293167108   F   F   T
  3.3369375117454720  3.9545621279340626 18.5000000527184447   T   T   T
  3.1613092289602029  3.6503650405746737 11.5000000503782687   T   T   T
  3.3369375161252588 -1.5209854493058941 18.5000000442820998   T   T   T
  3.1613092333399893 -1.8251825366652830 11.5000000419419255   T   T   T
  4.9175920611926811  1.2167883369286041 18.5000000653436594   T   T   T
  4.7419637784074107  0.9125912495692151 11.5000000630034833   T   T   T
  1.7562830130976257 -0.6083941476284497 16.9346793073166673   T   T   T
  1.7562829101660349 -0.6083941445030088 20.0653207171710726   T   T   T
  1.5806547303123566 -0.9125912349878385  9.9346793049764948   T   T   T
  1.5806546273807658 -0.9125912318623974 13.0653207148308983   T   T   T
  3.3369375581650478  2.1293796386060486 16.9346793283782269   T   T   T
  3.3369374552334574  2.1293796417314894 20.0653207382326322   T   T   T
  3.1613092753797791  1.8251825512466597  9.9346793260380526   T   T   T
  3.1613091724481888  1.8251825543721008 13.0653207358924544   T   T   T
  3.3369375625448354 -3.3461679386339083 16.9346793199418819   T   T   T
  3.3369374596132442 -3.3461679355084675 20.0653207297962872   T   T   T
  3.1613092797595659 -3.6503650259932976  9.9346793176017094   T   T   T
  3.1613091768279755 -3.6503650228678559 13.0653207274561112   T   T   T
  4.9175921076122577 -0.6083941523994104 16.9346793410034415   T   T   T
  4.9175920046806665 -0.6083941492739688 20.0653207508578468   T   T   T
  4.7419638248269882 -0.9125912397587992  9.9346793386632672   T   T   T
  4.7419637218953978 -0.9125912366333579 13.0653207485176690   T   T   T
